
  12    4
  10   10   10   10

   0   0   0   0   0   3 2 4 5 
   3  10  10  10  10   2 7 3 
   3  10  10  10  10   2 9 6 
  10  10  10  10  10   2 7 6 
   3  10  10  10  10   2 9 8 
   8  10  10  10  10   1 8 
   3  10  10  10  10   1 8 
   7  10  10  10  10   2 11 10 
   2  10  10  10  10   2 11 10 
  10  10  10  10  10   1 12
   3  10  10  10  10   1 12
   0   0   0   0   0   0 
